#This is Python generated data file for Pyomo model DCLF.py
#_author_:W. Bukhsh
#Time stamp: 2021-01-27 16:38:34.660275
set B:=
9
10
11
12
13
14
15
16
17
18
19
20
21
22
23
24
25
26
27
28
29
32
33
34
35
36
37
38
39
40
43
44
49
50
902
1002
1006
1007
1102
1105
1106
1107
1202
1204
1207
1307
1505
1602
1605
1607
1705
1707
1802
1805
1807
1902
1907
2002
2006
2207
2301
2305
2307
2509
2602
2607
2702
2706
2802
2807
2809
2906
2907
80400
80401
80402
80801
81200
81400
81801
81803
81804
82200
82400
82801
83200
83801
83805
83809
84400
85400
85401
85402
85801
85806
86200
86400
86801
87200
87400
87801
87803
87812
88400
88801
88802
88806
89200
89201
89400
89401
89402
89801
91200
91400
91801
91802
91803
91804
92200
92801
92802
93200
93801
93802
93807
93809
94200
94801
95200
95801
96100
96200
96400
96801
96803
;
set G:=
G1
G2
G3
G4
G5
G6
G7
G8
G9
G10
G11
G12
G13
G14
G15
G16
G17
G18
G19
G20
G21
G22
G23
G24
G25
G26
G27
G28
G29
G30
G31
G32
G33
G34
G35
G36
G37
G38
G39
G40
G41
G42
G43
G44
G45
G46
G47
G48
G49
G50
G51
G52
G53
G54
G55
G56
G57
G58
G59
G60
G61
G62
G63
G64
G65
G66
G67
G68
G69
G70
G71
G72
G73
G74
G75
G76
G77
G78
G79
G80
G81
G82
G83
;
set D:=
D1
D2
D3
D4
D5
D6
D7
D8
D9
D10
D11
D12
D13
D14
D15
D16
D17
D18
D19
D20
D21
D22
D23
D24
D25
D26
D27
D28
D29
D30
D31
D32
D33
D34
D35
D36
D37
D38
D39
D40
D41
D42
D43
D44
D45
D46
D47
D48
D49
D50
D51
D52
D53
D54
D55
D56
D57
D58
D59
;
param PD:=
D1 1.32579
D2 0.03065
D3 26.11808
D4 0.050039999999999994
D5 34.2666
D6 0.33399
D7 12.12589
D8 0.12509
D9 25.740740000000002
D10 0.13134
D11 18.67326
D12 0.07818
D13 26.85237
D14 0.22515999999999997
D15 16.38882
D16 0.5285
D17 11.02446
D18 0.09069
D19 54.68378
D20 0.47220999999999996
D21 20.590549999999997
D22 0.29459
D23 10.47742
D24 0.08756
D25 7.15927
D26 0.10633
D27 18.56108
D28 0.26144
D29 48.27919
D30 0.29646
D31 14.46132
D32 0.0369
D33 99.27114999999999
D34 0.44219
D35 0.36463999999999996
D36 14.52251
D37 0.16262000000000001
D38 4.66067
D39 0.03628
D40 28.05578
D41 0.0688
D42 26.281260000000003
D43 0.15636
D44 1.12116
D45 4.57115
D46 3.50233
D47 5.34553
D48 0.82715
D49 2.95942
D50 3.73269
D51 7.01312
D52 4.16101
D53 3.04168
D54 2.44522
D55 1.1908400000000001
D56 1.8498400000000002
D57 3.0816399999999997
D58 3.52236
D59 1.7951
;
param VOLL:=
D1 7000.0
D2 7000.0
D3 7000.0
D4 7000.0
D5 7000.0
D6 7000.0
D7 7000.0
D8 7000.0
D9 7000.0
D10 7000.0
D11 7000.0
D12 7000.0
D13 7000.0
D14 7000.0
D15 7000.0
D16 7000.0
D17 7000.0
D18 7000.0
D19 7000.0
D20 7000.0
D21 7000.0
D22 7000.0
D23 7000.0
D24 7000.0
D25 7000.0
D26 7000.0
D27 7000.0
D28 7000.0
D29 7000.0
D30 7000.0
D31 7000.0
D32 7000.0
D33 7000.0
D34 7000.0
D35 7000.0
D36 7000.0
D37 7000.0
D38 7000.0
D39 7000.0
D40 7000.0
D41 7000.0
D42 7000.0
D43 7000.0
D44 7000.0
D45 7000.0
D46 7000.0
D47 7000.0
D48 7000.0
D49 7000.0
D50 7000.0
D51 7000.0
D52 7000.0
D53 7000.0
D54 7000.0
D55 7000.0
D56 7000.0
D57 7000.0
D58 7000.0
D59 7000.0
;
param baseMVA:=
100
;
set LE:=
 1 
 2;
set L:=
L1
L2
L3
L4
L5
L6
L7
L8
L9
L10
L11
L12
L13
L14
L15
L16
L17
L18
L19
L20
L21
L22
L23
L24
L25
L26
L27
L28
L29
L30
L31
L32
L33
L34
L35
L36
L37
L38
L39
L40
L41
L42
L43
L44
L45
L46
L47
L48
L49
L50
L51
L52
L53
L54
L55
L56
L57
L58
L59
L60
L61
L62
L63
L64
L65
L66
L67
L68
L69
L70
L71
L72
L73
L74
L75
L76
L77
L78
L79
L80
L81
L82
L83
L84
L85
L86
L87
L88
L89
L90
L91
L92
L93
L94
L95
L96
L97
L98
L99
L100
L101
L102
L103
L104
L105
L106
L107
L108
L109
L110
L111
L112
L113
L114
L115
L116
L117
L118
L119
L120
L121
L122
L123
L124
L125
L126
L127
L128
;
set TRANSF:= 
T1
T2
T3
T4
T5
T6
T7
T8
T9
T10
T11
T12
T13
T14
T15
T16
T17
T18
T19
T20
T21
T22
T23
T24
T25
T26
T27
T28
T29
T30
T31
T32
T33
T34
T35
T36
T37
T38
T39
T40
T41
T42
T43
T44
T45
T46
T47
T48
T49
T50
T51
T52
T53
T54
T55
T56
T57
T58
T59
T60
T61
T62
T63
T64
T65
T66
T67
T68
T69
T70
T71
T72
T73
T74
T75
T76
T77
T78
T79
T80
T81
T82
T83
T84
T85
T86
T87
T88
T89
T90
T91
;
set Gbs:=
26 G1
27 G2
9 G3
18 G4
21 G5
22 G6
25 G7
27 G8
28 G9
29 G10
902 G11
1002 G12
1006 G13
1007 G14
1102 G15
1105 G16
1106 G17
1107 G18
1202 G19
1207 G20
1307 G21
1505 G22
1602 G23
1605 G24
1607 G25
1705 G26
1707 G27
1805 G28
1902 G29
1907 G30
2002 G31
2006 G32
2207 G33
2301 G34
2305 G35
2307 G36
2509 G37
2602 G38
2607 G39
2702 G40
2706 G41
2802 G42
2807 G43
2809 G44
2906 G45
2907 G46
80400 G47
80801 G48
81200 G49
81801 G50
81803 G51
82801 G52
83200 G53
83805 G54
83809 G55
85402 G56
85801 G57
85806 G58
86801 G59
87801 G60
87803 G61
87812 G62
88400 G63
88801 G64
88802 G65
88806 G66
89801 G67
91200 G68
91200 G69
91801 G70
91802 G71
91803 G72
92801 G73
93807 G74
93809 G75
94200 G76
94801 G77
95200 G78
95200 G79
95801 G80
96100 G81
96801 G82
96803 G83
;
set Wbs:=
;
set Dbs:=
9.0 D1
9.0 D2
10.0 D3
10.0 D4
11.0 D5
11.0 D6
12.0 D7
12.0 D8
13.0 D9
13.0 D10
14.0 D11
14.0 D12
15.0 D13
15.0 D14
16.0 D15
16.0 D16
17.0 D17
17.0 D18
18.0 D19
18.0 D20
19.0 D21
19.0 D22
20.0 D23
20.0 D24
21.0 D25
21.0 D26
22.0 D27
22.0 D28
23.0 D29
23.0 D30
24.0 D31
24.0 D32
25.0 D33
25.0 D34
26.0 D35
26.0 D36
26.0 D37
27.0 D38
27.0 D39
28.0 D40
28.0 D41
29.0 D42
29.0 D43
80400.0 D44
81200.0 D45
82200.0 D46
83200.0 D47
84400.0 D48
85400.0 D49
86200.0 D50
87200.0 D51
88400.0 D52
89400.0 D53
91200.0 D54
92200.0 D55
93200.0 D56
94200.0 D57
95200.0 D58
96100.0 D59
;
set b0:=
1002
;
param A:=
L1 1 9.0
L2 1 9.0
L3 1 9.0
L4 1 9.0
L5 1 9.0
L6 1 9.0
L7 1 10.0
L8 1 10.0
L9 1 10.0
L10 1 10.0
L11 1 11.0
L12 1 11.0
L13 1 11.0
L14 1 11.0
L15 1 11.0
L16 1 11.0
L17 1 11.0
L18 1 11.0
L19 1 12.0
L20 1 12.0
L21 1 12.0
L22 1 13.0
L23 1 13.0
L24 1 13.0
L25 1 13.0
L26 1 13.0
L27 1 13.0
L28 1 14.0
L29 1 14.0
L30 1 14.0
L31 1 14.0
L32 1 15.0
L33 1 15.0
L34 1 16.0
L35 1 16.0
L36 1 16.0
L37 1 16.0
L38 1 17.0
L39 1 17.0
L40 1 17.0
L41 1 17.0
L42 1 17.0
L43 1 17.0
L44 1 18.0
L45 1 18.0
L46 1 18.0
L47 1 18.0
L48 1 19.0
L49 1 19.0
L50 1 19.0
L51 1 19.0
L52 1 20.0
L53 1 20.0
L54 1 20.0
L55 1 20.0
L56 1 21.0
L57 1 21.0
L58 1 21.0
L59 1 21.0
L60 1 21.0
L61 1 21.0
L62 1 22.0
L63 1 22.0
L64 1 22.0
L65 1 22.0
L66 1 23.0
L67 1 23.0
L68 1 23.0
L69 1 23.0
L70 1 24.0
L71 1 24.0
L72 1 24.0
L73 1 24.0
L74 1 25.0
L75 1 25.0
L76 1 26.0
L77 1 26.0
L78 1 27.0
L79 1 27.0
L80 1 28.0
L81 1 28.0
L82 1 49.0
L83 1 80400.0
L84 1 80400.0
L85 1 80400.0
L86 1 80400.0
L87 1 81200.0
L88 1 81200.0
L89 1 81200.0
L90 1 81400.0
L91 1 82200.0
L92 1 82200.0
L93 1 82400.0
L94 1 83200.0
L95 1 83200.0
L96 1 83200.0
L97 1 83200.0
L98 1 83200.0
L99 1 83200.0
L100 1 83200.0
L101 1 84400.0
L102 1 84400.0
L103 1 85400.0
L104 1 85400.0
L105 1 85400.0
L106 1 85401.0
L107 1 86200.0
L108 1 86200.0
L109 1 87400.0
L110 1 87400.0
L111 1 88400.0
L112 1 88400.0
L113 1 89400.0
L114 1 89400.0
L115 1 91200.0
L116 1 91200.0
L117 1 91200.0
L118 1 91400.0
L119 1 92200.0
L120 1 92200.0
L121 1 92200.0
L122 1 92200.0
L123 1 93200.0
L124 1 93200.0
L125 1 93200.0
L126 1 94200.0
L127 1 94200.0
L128 1 94200.0
L1 2 10.0
L2 2 10.0
L3 2 43.0
L4 2 44.0
L5 2 80401.0
L6 2 80402.0
L7 2 15.0
L8 2 15.0
L9 2 89401.0
L10 2 89402.0
L11 2 12.0
L12 2 12.0
L13 2 13.0
L14 2 13.0
L15 2 15.0
L16 2 15.0
L17 2 43.0
L18 2 44.0
L19 2 13.0
L20 2 13.0
L21 2 50.0
L22 2 14.0
L23 2 15.0
L24 2 15.0
L25 2 18.0
L26 2 18.0
L27 2 38.0
L28 2 15.0
L29 2 15.0
L30 2 16.0
L31 2 16.0
L32 2 16.0
L33 2 16.0
L34 2 19.0
L35 2 19.0
L36 2 22.0
L37 2 22.0
L38 2 18.0
L39 2 18.0
L40 2 22.0
L41 2 22.0
L42 2 32.0
L43 2 33.0
L44 2 23.0
L45 2 23.0
L46 2 36.0
L47 2 37.0
L48 2 20.0
L49 2 20.0
L50 2 21.0
L51 2 21.0
L52 2 21.0
L53 2 21.0
L54 2 26.0
L55 2 26.0
L56 2 22.0
L57 2 22.0
L58 2 25.0
L59 2 25.0
L60 2 34.0
L61 2 35.0
L62 2 23.0
L63 2 23.0
L64 2 25.0
L65 2 25.0
L66 2 24.0
L67 2 24.0
L68 2 29.0
L69 2 29.0
L70 2 28.0
L71 2 28.0
L72 2 39.0
L73 2 40.0
L74 2 26.0
L75 2 26.0
L76 2 27.0
L77 2 27.0
L78 2 28.0
L79 2 28.0
L80 2 29.0
L81 2 29.0
L82 2 50.0
L83 2 80401.0
L84 2 80402.0
L85 2 87400.0
L86 2 87400.0
L87 2 82200.0
L88 2 83200.0
L89 2 86200.0
L90 2 84400.0
L91 2 83200.0
L92 2 96200.0
L93 2 96400.0
L94 2 87200.0
L95 2 87200.0
L96 2 89200.0
L97 2 89201.0
L98 2 94200.0
L99 2 95200.0
L100 2 95200.0
L101 2 85400.0
L102 2 87400.0
L103 2 85401.0
L104 2 86400.0
L105 2 87400.0
L106 2 85402.0
L107 2 87200.0
L108 2 87200.0
L109 2 88400.0
L110 2 88400.0
L111 2 89400.0
L112 2 89400.0
L113 2 89401.0
L114 2 89402.0
L115 2 92200.0
L116 2 92200.0
L117 2 96200.0
L118 2 96400.0
L119 2 93200.0
L120 2 94200.0
L121 2 94200.0
L122 2 94200.0
L123 2 94200.0
L124 2 94200.0
L125 2 94200.0
L126 2 95200.0
L127 2 95200.0
L128 2 95200.0
;
param AT:= 
T1 1 9.0
T2 1 10.0
T3 1 10.0
T4 1 10.0
T5 1 11.0
T6 1 11.0
T7 1 11.0
T8 1 11.0
T9 1 12.0
T10 1 12.0
T11 1 12.0
T12 1 12.0
T13 1 12.0
T14 1 1307.0
T15 1 38.0
T16 1 15.0
T17 1 16.0
T18 1 16.0
T19 1 34.0
T20 1 35.0
T21 1 16.0
T22 1 16.0
T23 1 16.0
T24 1 17.0
T25 1 1707.0
T26 1 18.0
T27 1 18.0
T28 1 18.0
T29 1 19.0
T30 1 19.0
T31 1 20.0
T32 1 20.0
T33 1 22.0
T34 1 23.0
T35 1 23.0
T36 1 23.0
T37 1 39.0
T38 1 40.0
T39 1 25.0
T40 1 26.0
T41 1 26.0
T42 1 27.0
T43 1 27.0
T44 1 28.0
T45 1 28.0
T46 1 28.0
T47 1 29.0
T48 1 29.0
T49 1 80400.0
T50 1 81400.0
T51 1 81200.0
T52 1 81200.0
T53 1 81200.0
T54 1 96100.0
T55 1 82200.0
T56 1 82200.0
T57 1 83200.0
T58 1 83200.0
T59 1 83200.0
T60 1 85400.0
T61 1 85400.0
T62 1 86400.0
T63 1 86200.0
T64 1 87400.0
T65 1 87400.0
T66 1 87400.0
T67 1 87400.0
T68 1 87400.0
T69 1 88400.0
T70 1 88400.0
T71 1 88400.0
T72 1 89400.0
T73 1 89400.0
T74 1 89400.0
T75 1 91200.0
T76 1 91200.0
T77 1 91200.0
T78 1 91200.0
T79 1 91200.0
T80 1 92200.0
T81 1 92200.0
T82 1 93200.0
T83 1 93200.0
T84 1 93200.0
T85 1 93200.0
T86 1 94200.0
T87 1 95200.0
T88 1 96100.0
T89 1 96200.0
T90 1 96100.0
T91 1 96200.0
T1 2 902.0
T2 2 1002.0
T3 2 1006.0
T4 2 1007.0
T5 2 1102.0
T6 2 1105.0
T7 2 1106.0
T8 2 1107.0
T9 2 36.0
T10 2 37.0
T11 2 1202.0
T12 2 1204.0
T13 2 1207.0
T14 2 13.0
T15 2 14.0
T16 2 1505.0
T17 2 32.0
T18 2 33.0
T19 2 16.0
T20 2 16.0
T21 2 1602.0
T22 2 1605.0
T23 2 1607.0
T24 2 1705.0
T25 2 17.0
T26 2 1802.0
T27 2 1805.0
T28 2 1807.0
T29 2 1902.0
T30 2 1907.0
T31 2 2002.0
T32 2 2006.0
T33 2 2207.0
T34 2 2301.0
T35 2 2305.0
T36 2 2307.0
T37 2 25.0
T38 2 25.0
T39 2 2509.0
T40 2 2602.0
T41 2 2607.0
T42 2 2702.0
T43 2 2706.0
T44 2 2802.0
T45 2 2807.0
T46 2 2809.0
T47 2 2906.0
T48 2 2907.0
T49 2 80801.0
T50 2 81200.0
T51 2 81801.0
T52 2 81803.0
T53 2 81804.0
T54 2 81200.0
T55 2 82400.0
T56 2 82801.0
T57 2 83801.0
T58 2 83805.0
T59 2 83809.0
T60 2 85801.0
T61 2 85806.0
T62 2 86200.0
T63 2 86801.0
T64 2 87200.0
T65 2 87200.0
T66 2 87801.0
T67 2 87803.0
T68 2 87812.0
T69 2 88801.0
T70 2 88802.0
T71 2 88806.0
T72 2 89200.0
T73 2 89201.0
T74 2 89801.0
T75 2 91400.0
T76 2 91801.0
T77 2 91802.0
T78 2 91803.0
T79 2 91804.0
T80 2 92801.0
T81 2 92802.0
T82 2 93801.0
T83 2 93802.0
T84 2 93807.0
T85 2 93809.0
T86 2 94801.0
T87 2 95801.0
T88 2 95200.0
T89 2 96100.0
T90 2 96803.0
T91 2 96801.0
;
param PGmin:=
G1 8.0
G2 18.2
G3 0.0
G4 0.0
G5 0.0
G6 0.0
G7 0.0
G8 0.0
G9 0.0
G10 0.0
G11 1.44118
G12 0.48562
G13 3.6210000000000004
G14 0.423
G15 14.88175
G16 5.859
G17 3.609
G18 0.465
G19 4.42536
G20 1.545
G21 1.71
G22 0.225
G23 7.24506
G24 0.12
G25 0.075
G26 0.102
G27 1.203
G28 0.15
G29 11.482449999999998
G30 1.095
G31 7.86383
G32 3.636
G33 0.735
G34 1.78581
G35 0.153
G36 0.096
G37 0.43200000000000005
G38 4.93448
G39 2.1
G40 2.34975
G41 3.2430000000000003
G42 5.20078
G43 0.43200000000000005
G44 0.474
G45 2.736
G46 0.42
G47 0.0
G48 5.23681
G49 0.0
G50 0.22713999999999998
G51 0.045
G52 0.52478
G53 0.0
G54 6.852
G55 0.048
G56 0.0
G57 2.13827
G58 2.841
G59 0.6265999999999999
G60 17.80327
G61 0.099
G62 0.06
G63 0.0
G64 4.66034
G65 3.52462
G66 3.648
G67 0.87567
G68 0.0
G69 0.0
G70 10.35065
G71 0.6485299999999999
G72 0.018000000000000002
G73 2.4829
G74 1.2
G75 0.036000000000000004
G76 0.0
G77 1.1670399999999999
G78 0.0
G79 0.0
G80 0.95557
G81 0.0
G82 1.80148
G83 0.033
;
param PGmax:=
G1 8.0
G2 18.2
G3 0.0
G4 0.0
G5 0.0
G6 0.0
G7 0.0
G8 0.0
G9 0.0
G10 0.0
G11 1.44118
G12 0.48562
G13 12.07
G14 4.21
G15 14.88175
G16 19.53
G17 24.06
G18 9.65
G19 4.42536
G20 18.95
G21 14.8
G22 74.33
G23 7.24506
G24 39.88
G25 106.87
G26 20.22
G27 4.01
G28 10.18
G29 11.482449999999998
G30 24.69
G31 7.86383
G32 12.12
G33 9.85
G34 1.78581
G35 16.2
G36 75.17
G37 22.17
G38 4.93448
G39 47.95
G40 2.34975
G41 10.81
G42 5.20078
G43 14.64
G44 1.58
G45 9.12
G46 10.45
G47 0.0
G48 5.23681
G49 0.0
G50 0.22713999999999998
G51 2.32
G52 0.52478
G53 0.0
G54 22.84
G55 1.91
G56 0.0
G57 2.13827
G58 9.47
G59 0.6265999999999999
G60 17.80327
G61 0.33
G62 0.65
G63 0.0
G64 4.66034
G65 3.52462
G66 12.16
G67 0.87567
G68 0.0
G69 0.0
G70 10.35065
G71 0.6485299999999999
G72 5.35
G73 2.4829
G74 4.0
G75 0.12
G76 0.0
G77 1.1670399999999999
G78 0.0
G79 0.0
G80 0.95557
G81 0.0
G82 1.80148
G83 3.22
;
param SLmax:=
L1 7.75
L2 8.55
L3 50.0
L4 50.0
L5 20.1
L6 20.1
L7 40.2
L8 48.4
L9 27.7
L10 27.7
L11 33.2
L12 33.2
L13 22.1
L14 21.7
L15 25.2
L16 25.2
L17 31.0
L18 31.0
L19 5.966
L20 5.966
L21 50.0
L22 10.4
L23 9.55
L24 21.4
L25 24.0
L26 24.0
L27 10.4
L28 50.0
L29 50.0
L30 6.25
L31 25.8
L32 55.4
L33 27.7
L34 38.2
L35 27.8
L36 20.1
L37 20.1
L38 34.6
L39 31.0
L40 21.0
L41 21.0
L42 21.5
L43 18.9
L44 19.7
L45 19.7
L46 24.0
L47 24.0
L48 15.9
L49 15.9
L50 27.8
L51 30.3
L52 27.8
L53 27.8
L54 27.8
L55 27.8
L56 27.8
L57 27.8
L58 27.8
L59 27.8
L60 27.8
L61 27.8
L62 27.7
L63 27.8
L64 32.75
L65 32.75
L66 44.0
L67 27.8
L68 20.1
L69 20.1
L70 22.1
L71 22.1
L72 13.9
L73 13.9
L74 55.4
L75 69.6
L76 31.0
L77 31.0
L78 30.7
L79 30.7
L80 27.8
L81 27.8
L82 50.0
L83 50.0
L84 50.0
L85 22.1
L86 22.1
L87 9.5
L88 10.5
L89 10.0
L90 10.0
L91 8.2
L92 19.1
L93 27.8
L94 15.0
L95 15.0
L96 10.5
L97 10.9
L98 9.55
L99 15.2
L100 9.55
L101 13.2
L102 13.9
L103 50.0
L104 13.5
L105 13.9
L106 50.0
L107 9.55
L108 7.5
L109 12.5
L110 13.9
L111 24.7
L112 24.7
L113 50.0
L114 50.0
L115 9.35
L116 9.35
L117 19.1
L118 27.8
L119 10.9
L120 9.35
L121 9.35
L122 9.35
L123 10.9
L124 10.9
L125 10.9
L126 9.55
L127 9.55
L128 9.55
;
param SLmaxT:=
T1 1.6013
T2 0.5396
T3 14.2
T4 4.9529000000000005
T5 16.5353
T6 22.9765
T7 28.3059
T8 11.3529
T9 24.0
T10 24.0
T11 4.9171
T12 9.99
T13 22.2941
T14 17.4118
T15 10.4
T16 100.5641
T17 21.5
T18 18.9
T19 27.8
T20 27.8
T21 8.0501
T22 46.9177
T23 125.7294
T24 23.788200000000003
T25 4.7177
T26 9.99
T27 11.976500000000001
T28 9.99
T29 12.758299999999998
T30 29.0471
T31 8.7376
T32 14.2588
T33 11.588199999999999
T34 11.974200000000002
T35 19.0588
T36 88.43530000000001
T37 13.9
T38 13.9
T39 26.082399999999996
T40 5.4828
T41 56.4118
T42 2.6108
T43 12.7177
T44 5.7786
T45 17.223499999999998
T46 1.8588
T47 10.7294
T48 12.2941
T49 15.808699999999998
T50 10.0
T51 10.2424
T52 2.7294
T53 9.99
T54 1.23
T55 10.0
T56 10.5731
T57 19.98
T58 26.8706
T59 2.2471
T60 12.3659
T61 11.1412
T62 10.0
T63 10.6862
T64 10.0
T65 10.0
T66 29.7714
T67 0.3882
T68 0.7646999999999999
T69 15.168099999999999
T70 3.9162
T71 14.3059
T72 10.0
T73 10.0
T74 10.963
T75 24.0
T76 21.4907
T77 0.763
T78 6.294099999999999
T79 9.99
T80 12.748800000000001
T81 9.99
T82 19.98
T83 9.99
T84 4.7059
T85 0.1412
T86 11.286700000000002
T87 11.0517
T88 4.8
T89 4.8
T90 2.6965
T91 11.9916
;
param c2:=
G1 0.0
G2 0.0
G3 0.0
G4 0.0
G5 0.0
G6 0.0
G7 0.0
G8 0.0
G9 0.0
G10 0.0
G11 0.0
G12 0.0
G13 0.00414250207125
G14 0.0338479809976
G15 0.0
G16 0.00614439324117
G17 0.00207813798836
G18 0.0147668393782
G19 0.0
G20 0.00751978891821
G21 0.00962837837838
G22 0.0016144221714
G23 0.0
G24 0.00300902708124
G25 0.00133339571442
G26 0.00593471810089
G27 0.035536159601
G28 0.0117878192534
G29 0.0
G30 0.00577156743621
G31 0.0
G32 0.0049504950495
G33 0.0144670050761
G34 0.0
G35 0.00740740740741
G36 0.00189570307303
G37 0.010148849797
G38 0.0
G39 0.00297184567258
G40 0.0
G41 0.00462534690102
G42 0.0
G43 0.00973360655738
G44 0.142405063291
G45 0.00548245614035
G46 0.0136363636364
G47 0.0
G48 0.0
G49 0.0
G50 0.0
G51 0.0
G52 0.0
G53 0.0
G54 0.00525394045534
G55 0.11780104712
G56 0.0
G57 0.0
G58 0.00527983104541
G59 0.0
G60 0.0
G61 0.0
G62 0.346153846154
G63 0.0
G64 0.0
G65 0.0
G66 0.00411184210526
G67 0.0
G68 0.0
G69 0.0
G70 0.0
G71 0.0
G72 0.0
G73 0.0
G74 0.035625
G75 1.875
G76 0.0
G77 0.0
G78 0.0
G79 0.0
G80 0.0
G81 0.0
G82 0.0
G83 0.0
;
param c1:=
G1 0.0
G2 0.0
G3 0.0
G4 0.0
G5 0.0
G6 0.0
G7 0.0
G8 0.0
G9 0.0
G10 0.0
G11 0.0
G12 0.0
G13 45.0
G14 75.0
G15 0.0
G16 90.0
G17 45.0
G18 75.0
G19 0.0
G20 75.0
G21 75.0
G22 90.0
G23 0.0
G24 90.0
G25 75.0
G26 90.0
G27 75.0
G28 90.0
G29 0.0
G30 75.0
G31 0.0
G32 37.5
G33 75.0
G34 0.0
G35 90.0
G36 75.0
G37 15.0
G38 0.0
G39 75.0
G40 0.0
G41 45.0
G42 0.0
G43 75.0
G44 15.0
G45 45.0
G46 75.0
G47 0.0
G48 0.0
G49 0.0
G50 0.0
G51 0.0
G52 0.0
G53 0.0
G54 90.0
G55 15.0
G56 0.0
G57 0.0
G58 45.0
G59 0.0
G60 0.0
G61 0.0
G62 15.0
G63 0.0
G64 0.0
G65 0.0
G66 45.0
G67 0.0
G68 0.0
G69 0.0
G70 0.0
G71 0.0
G72 0.0
G73 0.0
G74 75.0
G75 15.0
G76 0.0
G77 0.0
G78 0.0
G79 0.0
G80 0.0
G81 0.0
G82 0.0
G83 0.0
;
param c0:=
G1 0.0
G2 0.0
G3 0.0
G4 0.0
G5 0.0
G6 0.0
G7 0.0
G8 0.0
G9 0.0
G10 0.0
G11 0.0
G12 0.0
G13 90525.0
G14 89988.75
G15 0.0
G16 351540.0
G17 180450.0
G18 206268.75
G19 0.0
G20 405056.25
G21 316350.0
G22 1337940.0
G23 0.0
G24 717840.0
G25 2284346.25
G26 363960.0
G27 85713.75
G28 183240.0
G29 0.0
G30 527748.75
G31 0.0
G32 109080.0
G33 210543.75
G34 0.0
G35 291600.0
G36 1606758.75
G37 748237.5
G38 0.0
G39 1024931.25
G40 0.0
G41 81075.0
G42 0.0
G43 312930.0
G44 53325.0
G45 68400.0
G46 223368.75
G47 0.0
G48 0.0
G49 0.0
G50 0.0
G51 0.0
G52 0.0
G53 0.0
G54 411120.0
G55 64462.5
G56 0.0
G57 0.0
G58 71025.0
G59 0.0
G60 0.0
G61 0.0
G62 21937.5
G63 0.0
G64 0.0
G65 0.0
G66 91200.0
G67 0.0
G68 0.0
G69 0.0
G70 0.0
G71 0.0
G72 0.0
G73 0.0
G74 85500.0
G75 4050.0
G76 0.0
G77 0.0
G78 0.0
G79 0.0
G80 0.0
G81 0.0
G82 0.0
G83 0.0
;
param BL:=
L1 -29.15451895043732
L2 -40.766408479412966
L3 195.31249999999997
L4 195.31249999999997
L5 -67.6132521974307
L6 -67.65899864682002
L7 -158.73015873015873
L8 -119.76047904191617
L9 -57.14285714285714
L10 -57.14285714285714
L11 -117.6470588235294
L12 -117.6470588235294
L13 -192.30769230769232
L14 -192.30769230769232
L15 -23.809523809523807
L16 -23.809523809523807
L17 -64.1025641025641
L18 -64.1025641025641
L19 -92.7643784786642
L20 -92.7643784786642
L21 -10000.0
L22 -83.26394671107411
L23 -43.47826086956522
L24 -43.47826086956522
L25 -142.85714285714286
L26 -142.85714285714286
L27 -126.10340479192939
L28 -450.45045045045043
L29 -450.45045045045043
L30 -55.55555555555556
L31 -62.5
L32 -581.3953488372093
L33 -192.30769230769232
L34 -70.92198581560284
L35 -70.92198581560284
L36 -58.13953488372093
L37 -58.13953488372093
L38 -555.5555555555555
L39 -555.5555555555555
L40 -103.09278350515464
L41 -103.09278350515464
L42 -142.45014245014244
L43 -142.45014245014244
L44 -104.16666666666667
L45 -104.16666666666667
L46 -188.67924528301887
L47 -188.67924528301887
L48 -69.93006993006993
L49 -46.948356807511736
L50 -169.49152542372883
L51 -169.49152542372883
L52 -208.33333333333334
L53 -208.33333333333334
L54 -434.7826086956522
L55 -434.7826086956522
L56 -163.93442622950818
L57 -900.9009009009009
L58 -100.0
L59 -100.0
L60 -68.7757909215956
L61 -68.7757909215956
L62 -333.3333333333333
L63 -333.3333333333333
L64 -243.90243902439022
L65 -243.90243902439022
L66 -1428.5714285714287
L67 -1250.0
L68 -54.94505494505494
L69 -54.94505494505494
L70 -142.85714285714286
L71 -142.85714285714286
L72 -185.18518518518516
L73 -185.18518518518516
L74 -175.43859649122805
L75 -175.43859649122805
L76 -198.80715705765408
L77 -198.80715705765408
L78 -140.64697609001408
L79 -140.64697609001408
L80 -125.62814070351759
L81 -125.62814070351759
L82 -10000.0
L83 137.221269296741
L84 137.221269296741
L85 -108.69565217391305
L86 -108.69565217391305
L87 -44.78280340349306
L88 -35.574528637495554
L89 -38.71467286101433
L90 -126.10340479192939
L91 -48.2392667631452
L92 -28.08988764044944
L93 -59.49300064847371
L94 -52.164840897235266
L95 -51.07252298263534
L96 -14.927601134497687
L97 -15.046644598254588
L98 -12.919896640826874
L99 -52.631578947368425
L100 -24.154589371980677
L101 -178.25311942959001
L102 -61.996280223186616
L103 -10000.0
L104 -169.49152542372883
L105 -57.8368999421631
L106 -10000.0
L107 -68.87052341597796
L108 -68.39945280437757
L109 -40.86636697997548
L110 -40.91653027823241
L111 -157.48031496062993
L112 -157.48031496062993
L113 173.91304347826087
L114 173.91304347826087
L115 -22.977941176470587
L116 -22.977941176470587
L117 -20.66115702479339
L118 -44.22567477323285
L119 -27.96420581655481
L120 -47.48338081671415
L121 -47.48338081671415
L122 -47.48338081671415
L123 -30.211480362537767
L124 -32.57328990228013
L125 -45.662100456621005
L126 -18.65671641791045
L127 -18.65671641791045
L128 -19.607843137254903
;
param BLT:=
T1 -10.675776662752215
T2 -3.597122302158273
T3 -52.60389268805892
T4 -18.345257750871397
T5 -110.25358324145535
T6 -85.1063829787234
T7 -104.82180293501048
T8 -42.05214465937763
T9 -270.27027027027026
T10 -270.27027027027026
T11 -32.77613897082924
T12 -66.57789613848202
T13 -82.57638315441784
T14 -64.47453255963894
T15 -270.27027027027026
T16 -319.4888178913738
T17 -270.27027027027026
T18 -270.27027027027026
T19 -270.27027027027026
T20 -270.27027027027026
T21 -53.676865271068166
T22 -240.38461538461542
T23 -418.41004184100416
T24 -121.95121951219511
T25 -31.446540880503143
T26 -66.57789613848202
T27 -61.42506142506143
T28 -66.57789613848202
T29 -85.03401360544218
T30 -107.52688172043011
T31 -58.241118229470004
T32 -95.05703422053232
T33 -77.27975270479135
T34 -79.80845969672785
T35 -127.06480304955527
T36 -588.2352941176471
T37 -270.27027027027026
T38 -270.27027027027026
T39 -173.91304347826087
T40 -36.54970760233918
T41 -375.9398496240602
T42 -17.40644038294169
T43 -84.81764206955046
T44 -38.52080123266564
T45 -114.81056257175659
T46 -12.391573729863694
T47 -71.5307582260372
T48 -81.96721311475409
T49 -105.3740779768177
T50 -61.84291898577613
T51 -68.25938566552901
T52 -13.646288209606988
T53 -66.57789613848202
T54 -5.415152680229819
T55 -62.5
T56 -70.47216349541931
T57 -133.15579227696404
T58 -179.2114695340502
T59 -14.9812734082397
T60 -82.44023083264634
T61 -74.29420505200595
T62 -61.84291898577613
T63 -71.22507122507122
T64 -58.6166471277843
T65 -58.6166471277843
T66 -198.4126984126984
T67 -1.9411821799475881
T68 -5.098139179199593
T69 -101.11223458038423
T70 -26.109660574412533
T71 -95.32888465204958
T72 -62.5
T73 -62.5
T74 -73.09941520467837
T75 -125.0
T76 -143.26647564469914
T77 -5.0864699898270604
T78 -31.46633102580239
T79 -66.57789613848202
T80 -84.96176720475786
T81 -66.57789613848202
T82 -133.15579227696404
T83 -66.57789613848202
T84 -31.36762860727729
T85 -0.9411764705882353
T86 -75.24454477050413
T87 -73.69196757553426
T88 -14.557545248490019
T89 -18.475750577367204
T90 -17.975912277548087
T91 -79.93605115907275
;
param BL:=
L1 -29.15451895043732
L2 -40.766408479412966
L3 195.31249999999997
L4 195.31249999999997
L5 -67.6132521974307
L6 -67.65899864682002
L7 -158.73015873015873
L8 -119.76047904191617
L9 -57.14285714285714
L10 -57.14285714285714
L11 -117.6470588235294
L12 -117.6470588235294
L13 -192.30769230769232
L14 -192.30769230769232
L15 -23.809523809523807
L16 -23.809523809523807
L17 -64.1025641025641
L18 -64.1025641025641
L19 -92.7643784786642
L20 -92.7643784786642
L21 -10000.0
L22 -83.26394671107411
L23 -43.47826086956522
L24 -43.47826086956522
L25 -142.85714285714286
L26 -142.85714285714286
L27 -126.10340479192939
L28 -450.45045045045043
L29 -450.45045045045043
L30 -55.55555555555556
L31 -62.5
L32 -581.3953488372093
L33 -192.30769230769232
L34 -70.92198581560284
L35 -70.92198581560284
L36 -58.13953488372093
L37 -58.13953488372093
L38 -555.5555555555555
L39 -555.5555555555555
L40 -103.09278350515464
L41 -103.09278350515464
L42 -142.45014245014244
L43 -142.45014245014244
L44 -104.16666666666667
L45 -104.16666666666667
L46 -188.67924528301887
L47 -188.67924528301887
L48 -69.93006993006993
L49 -46.948356807511736
L50 -169.49152542372883
L51 -169.49152542372883
L52 -208.33333333333334
L53 -208.33333333333334
L54 -434.7826086956522
L55 -434.7826086956522
L56 -163.93442622950818
L57 -900.9009009009009
L58 -100.0
L59 -100.0
L60 -68.7757909215956
L61 -68.7757909215956
L62 -333.3333333333333
L63 -333.3333333333333
L64 -243.90243902439022
L65 -243.90243902439022
L66 -1428.5714285714287
L67 -1250.0
L68 -54.94505494505494
L69 -54.94505494505494
L70 -142.85714285714286
L71 -142.85714285714286
L72 -185.18518518518516
L73 -185.18518518518516
L74 -175.43859649122805
L75 -175.43859649122805
L76 -198.80715705765408
L77 -198.80715705765408
L78 -140.64697609001408
L79 -140.64697609001408
L80 -125.62814070351759
L81 -125.62814070351759
L82 -10000.0
L83 137.221269296741
L84 137.221269296741
L85 -108.69565217391305
L86 -108.69565217391305
L87 -44.78280340349306
L88 -35.574528637495554
L89 -38.71467286101433
L90 -126.10340479192939
L91 -48.2392667631452
L92 -28.08988764044944
L93 -59.49300064847371
L94 -52.164840897235266
L95 -51.07252298263534
L96 -14.927601134497687
L97 -15.046644598254588
L98 -12.919896640826874
L99 -52.631578947368425
L100 -24.154589371980677
L101 -178.25311942959001
L102 -61.996280223186616
L103 -10000.0
L104 -169.49152542372883
L105 -57.8368999421631
L106 -10000.0
L107 -68.87052341597796
L108 -68.39945280437757
L109 -40.86636697997548
L110 -40.91653027823241
L111 -157.48031496062993
L112 -157.48031496062993
L113 173.91304347826087
L114 173.91304347826087
L115 -22.977941176470587
L116 -22.977941176470587
L117 -20.66115702479339
L118 -44.22567477323285
L119 -27.96420581655481
L120 -47.48338081671415
L121 -47.48338081671415
L122 -47.48338081671415
L123 -30.211480362537767
L124 -32.57328990228013
L125 -45.662100456621005
L126 -18.65671641791045
L127 -18.65671641791045
L128 -19.607843137254903
;
param BLT:=
T1 -10.675776662752215
T2 -3.597122302158273
T3 -52.60389268805892
T4 -18.345257750871397
T5 -110.25358324145535
T6 -85.1063829787234
T7 -104.82180293501048
T8 -42.05214465937763
T9 -270.27027027027026
T10 -270.27027027027026
T11 -32.77613897082924
T12 -66.57789613848202
T13 -82.57638315441784
T14 -64.47453255963894
T15 -270.27027027027026
T16 -319.4888178913738
T17 -270.27027027027026
T18 -270.27027027027026
T19 -270.27027027027026
T20 -270.27027027027026
T21 -53.676865271068166
T22 -240.38461538461542
T23 -418.41004184100416
T24 -121.95121951219511
T25 -31.446540880503143
T26 -66.57789613848202
T27 -61.42506142506143
T28 -66.57789613848202
T29 -85.03401360544218
T30 -107.52688172043011
T31 -58.241118229470004
T32 -95.05703422053232
T33 -77.27975270479135
T34 -79.80845969672785
T35 -127.06480304955527
T36 -588.2352941176471
T37 -270.27027027027026
T38 -270.27027027027026
T39 -173.91304347826087
T40 -36.54970760233918
T41 -375.9398496240602
T42 -17.40644038294169
T43 -84.81764206955046
T44 -38.52080123266564
T45 -114.81056257175659
T46 -12.391573729863694
T47 -71.5307582260372
T48 -81.96721311475409
T49 -105.3740779768177
T50 -61.84291898577613
T51 -68.25938566552901
T52 -13.646288209606988
T53 -66.57789613848202
T54 -5.415152680229819
T55 -62.5
T56 -70.47216349541931
T57 -133.15579227696404
T58 -179.2114695340502
T59 -14.9812734082397
T60 -82.44023083264634
T61 -74.29420505200595
T62 -61.84291898577613
T63 -71.22507122507122
T64 -58.6166471277843
T65 -58.6166471277843
T66 -198.4126984126984
T67 -1.9411821799475881
T68 -5.098139179199593
T69 -101.11223458038423
T70 -26.109660574412533
T71 -95.32888465204958
T72 -62.5
T73 -62.5
T74 -73.09941520467837
T75 -125.0
T76 -143.26647564469914
T77 -5.0864699898270604
T78 -31.46633102580239
T79 -66.57789613848202
T80 -84.96176720475786
T81 -66.57789613848202
T82 -133.15579227696404
T83 -66.57789613848202
T84 -31.36762860727729
T85 -0.9411764705882353
T86 -75.24454477050413
T87 -73.69196757553426
T88 -14.557545248490019
T89 -18.475750577367204
T90 -17.975912277548087
T91 -79.93605115907275
;
